benchmarks/crosswords/mzn/crossword3_39.ozn
output ([(((("\n"++problem_name)++"\n")++"L:")++show(L))++"\n"]++[if problem[i,j]==0 then "*" else show(letters[fix(L[problem[i,j]])]) endif++if j==cols then "\n" else "" endif | i in 1..rows, j in 1..cols, ])++["\n"];
int: rows = 21;
int: cols = 21;
array [1..rows,1..cols] of int: problem = [|1,2,3,4,5,6,7,0,8,9,10,11,12,0,13,14,15,16,17,18,19|20,21,22,23,24,25,26,0,27,28,29,30,31,0,32,33,34,35,36,37,38|39,40,41,42,43,44,45,0,46,47,48,49,50,0,51,52,53,54,55,56,57|58,59,60,0,61,62,63,64,65,66,67,68,69,70,71,72,73,0,74,75,76|77,78,79,80,0,81,82,83,84,85,86,87,0,88,89,90,0,91,92,93,94|95,96,97,98,99,0,100,101,102,103,104,0,105,106,107,0,108,109,110,111,112|113,114,115,116,117,118,0,119,120,121,0,122,123,124,0,125,126,127,128,129,130|0,0,0,131,132,133,134,135,136,0,137,138,139,140,141,142,143,144,0,0,0|145,146,147,148,149,150,151,152,0,153,154,155,156,157,158,159,0,160,161,162,163|164,165,166,167,168,169,170,0,171,172,173,174,175,176,177,0,178,179,180,181,182|183,184,185,186,187,188,0,189,190,191,192,193,194,195,0,196,197,198,199,200,201|202,203,204,205,206,0,207,208,209,210,211,212,213,0,214,215,216,217,218,219,220|221,222,223,224,0,225,226,227,228,229,230,231,0,232,233,234,235,236,237,238,239|0,0,0,240,241,242,243,244,245,246,247,0,248,249,250,251,252,253,0,0,0|254,255,256,257,258,259,0,260,261,262,0,263,264,265,0,266,267,268,269,270,271|272,273,274,275,276,0,277,278,279,0,280,281,282,283,284,0,285,286,287,288,289|290,291,292,293,0,294,295,296,0,297,298,299,300,301,302,303,0,304,305,306,307|308,309,310,0,311,312,313,314,315,316,317,318,319,320,321,322,323,0,324,325,326|327,328,329,330,331,332,333,0,334,335,336,337,338,0,339,340,341,342,343,344,345|346,347,348,349,350,351,352,0,353,354,355,356,357,0,358,359,360,361,362,363,364|365,366,367,368,369,370,371,0,372,373,374,375,376,0,377,378,379,380,381,382,383|];
int: num_letters = 26;
array [1..num_letters] of string: letters = ["a","b","c","d","e","f","g","h","i","j","k","l","m","n","o","p","q","r","s","t","u","v","w","x","y","z"];
int: N = 383;
array [0..N] of int: L;
string: problem_name = "21.10, 21 x 21";
